N = 42;
MinK = 6;
Capacity = 100;

X = array1d(0..42, [74, 9, 13, 47, 74, 71, 11, 23, 14, 31, 22, 50, 16, 48, 16, 18, 20, 26, 49, 19, 80, 75, 18, 10, 12, 80, 29, 79, 14, 76, 54, 17, 78, 72, 23, 78, 14, 0, 16, 24, 84, 80, 24]);
Y = array1d(0..42, [34, 22, 28, 63, 43, 10, 61, 33, 29, 34, 29, 66, 30, 70, 0, 33, 34, 36, 0, 0, 17, 13, 68, 27, 66, 50, 43, 48, 0, 51, 68, 30, 50, 19, 37, 45, 34, 15, 31, 37, 47, 44, 41]);

Demands = [25, 19, 8, 10, 1, 14, 11, 20, 23, 3, 4, 6, 23, 7, 15, 13, 3, 11, 24, 8, 14, 8, 9, 24, 10, 19, 10, 5, 7, 23, 11, 12, 4, 11, 16, 22, 24, 12, 5, 11, 7, 9];
